--- Job Opgave 5 benchmark calculations.gms Start 08/14/25 10:57:11 50.3.0 5a352073 DEX-DEG x86 64bit/macOS
--- Applying:
    /Library/Frameworks/GAMS.framework/Versions/50/Resources/gmsprmun.txt
--- GAMS Parameters defined
    Input "/Users/lukaskranker/Library/CloudStorage/OneDrive-KøbenhavnsUniversitet/Uni/6. År/PFO2025/Opgave 5/Opgave 5 benchmark calculations.gms"
    PageSize 0
    ScrDir "/Users/lukaskranker/Library/CloudStorage/OneDrive-KøbenhavnsUniversitet/Uni/6. År/PFO2025/Opgave 5/225a/"
    SysDir /Library/Frameworks/GAMS.framework/Versions/50/Resources/
    LogOption 3
    AppendLog 1
    ErrMsg 1
    ErrorLog 99
    IDE 1
    LstTitleLeftAligned 1
Licensee: Course License                                 G250404+0003Ac-GEN
          University of Copenhagen                                  DCE4232
          225a/gamslice.dat
          node:10959501 mem:16 cores:6 ipport:64683 v:2                    
          Course license for use within the course and related course work
          The expiration date of time-limited license is Oct 01, 2025
System information: 6 physical cores and 16 Gb physical memory detected
GAMS 50.3.0   Copyright (C) 1987-2025 GAMS Development. All rights reserved
--- Starting compilation
--- Opgave 5 benchmark calculations.gms(15) 3 Mb
--- GDXin=/Users/lukaskranker/Library/CloudStorage/OneDrive-KøbenhavnsUniversitet/Uni/6. År/PFO2025/Opgave 5/weekly_returns_2013_2025.gdx
--- GDX File ($gdxIn) /Users/lukaskranker/Library/CloudStorage/OneDrive-KøbenhavnsUniversitet/Uni/6. År/PFO2025/Opgave 5/weekly_returns_2013_2025.gdx
--- Opgave 5 benchmark calculations.gms(133) 3 Mb
--- Starting execution: elapsed 0:00:00.055
--- Opgave 5 benchmark calculations.gms(124) 5 Mb
--- Generating LP model MinDR
--- Opgave 5 benchmark calculations.gms(126) 51 Mb
---   1,003 rows  1,727 columns  727,728 non-zeroes
--- Range statistics (absolute non-zero finite values)
--- RHS       [min, max] : [ 1.000E+00, 1.002E+00] - Zero values observed as well
--- Bound     [min, max] : [ 1.000E+00, 1.000E+00] - Zero values observed as well
--- Matrix    [min, max] : [ 1.000E-03, 1.075E+00]
--- Executing CPLEX (Solvelink=2): elapsed 0:00:01.120

IBM ILOG CPLEX   50.3.0 5a352073 Jul 30, 2025          DEG x86 64bit/macOS    

--- GAMS/CPLEX licensed for continuous and discrete problems.
--- GMO setup time: 0.00s
--- Space for names approximately 0.09 Mb
--- Use option 'names no' to turn use of names off
--- GMO memory 33.82 Mb (peak 33.83 Mb)
--- Dictionary memory 0.00 Mb
--- Cplex 22.1.2.0 link memory 0.04 Mb (peak 8.48 Mb)
--- Starting Cplex

Version identifier: 22.1.2.0 | 2024-12-02 | 8bd2200c8
CPXPARAM_Advance                                 0
CPXPARAM_MIP_Display                             4
CPXPARAM_MIP_Pool_Capacity                       0
CPXPARAM_MIP_Tolerances_AbsMIPGap                0
Tried aggregator 1 time.
LP Presolve eliminated 1002 rows and 1727 columns.
All rows and columns eliminated.
Presolve time = 0.04 sec. (34.49 ticks)

--- LP status (1): optimal.
--- Cplex Time: 0.08sec (det. 50.28 ticks)


Optimal solution found
Objective:            0.006451

--- Reading solution for model MinDR
--- Executing after solve: elapsed 0:00:01.606
--- Opgave 5 benchmark calculations.gms(129) 51 Mb
*** Status: Normal completion
--- Job Opgave 5 benchmark calculations.gms Stop 08/14/25 10:57:12 elapsed 0:00:01.608
